1170844.0
1142
1 2 3 4 5 6 7 8 9 10 14 15 19 21 23 24 27 30 32 34 35 36 37 38 39 40 41 42 43 44 45 46 49 50 51 53 54 55 56 58 60 61 62 63 66 68 69 70 71 72 73 76 79 80 82 83 85 86 87 89 91 93 97 98 99 